c nIsolatedPIs 22
c maxPI 10
p cnf 65 166
c gate 11 2 8 0
2 -11 0
8 -11 0
-2 -8 11 0
c gate 12 3 7 0
3 -12 0
7 -12 0
-3 -7 12 0
c gate 13 4 6 0
4 -13 0
6 -13 0
-4 -6 13 0
c gate 14 -12 -13 0
-12 -14 0
-13 -14 0
12 13 14 0
c gate 15 12 13 0
12 -15 0
13 -15 0
-12 -13 15 0
c gate 16 -14 -15 0
-14 -16 0
-15 -16 0
14 15 16 0
c gate 17 -11 -16 0
-11 -17 0
-16 -17 0
11 16 17 0
c gate 18 11 16 0
11 -18 0
16 -18 0
-11 -16 18 0
c gate 19 -17 -18 0
-17 -19 0
-18 -19 0
17 18 19 0
c gate 20 3 6 0
3 -20 0
6 -20 0
-3 -6 20 0
c gate 21 2 7 0
2 -21 0
7 -21 0
-2 -7 21 0
c gate 22 20 21 0
20 -22 0
21 -22 0
-20 -21 22 0
c gate 23 -20 -21 0
-20 -23 0
-21 -23 0
20 21 23 0
c gate 24 1 8 0
1 -24 0
8 -24 0
-1 -8 24 0
c gate 25 -23 24 0
-23 -25 0
24 -25 0
23 -24 25 0
c gate 26 -22 -25 0
-22 -26 0
-25 -26 0
22 25 26 0
c gate 27 19 -26 0
19 -27 0
-26 -27 0
-19 26 27 0
c gate 28 1 9 0
1 -28 0
9 -28 0
-1 -9 28 0
c gate 29 -19 26 0
-19 -29 0
26 -29 0
19 -26 29 0
c gate 30 -27 -29 0
-27 -30 0
-29 -30 0
27 29 30 0
c gate 31 28 30 0
28 -31 0
30 -31 0
-28 -30 31 0
c gate 32 -27 -31 0
-27 -32 0
-31 -32 0
27 31 32 0
c gate 33 1 10 0
1 -33 0
10 -33 0
-1 -10 33 0
c gate 34 2 9 0
2 -34 0
9 -34 0
-2 -9 34 0
c gate 35 -33 -34 0
-33 -35 0
-34 -35 0
33 34 35 0
c gate 36 33 34 0
33 -36 0
34 -36 0
-33 -34 36 0
c gate 37 -35 -36 0
-35 -37 0
-36 -37 0
35 36 37 0
c gate 38 -15 -18 0
-15 -38 0
-18 -38 0
15 18 38 0
c gate 39 3 8 0
3 -39 0
8 -39 0
-3 -8 39 0
c gate 40 4 7 0
4 -40 0
7 -40 0
-4 -7 40 0
c gate 41 5 6 0
5 -41 0
6 -41 0
-5 -6 41 0
c gate 42 -40 -41 0
-40 -42 0
-41 -42 0
40 41 42 0
c gate 43 40 41 0
40 -43 0
41 -43 0
-40 -41 43 0
c gate 44 -42 -43 0
-42 -44 0
-43 -44 0
42 43 44 0
c gate 45 -39 -44 0
-39 -45 0
-44 -45 0
39 44 45 0
c gate 46 39 44 0
39 -46 0
44 -46 0
-39 -44 46 0
c gate 47 -45 -46 0
-45 -47 0
-46 -47 0
45 46 47 0
c gate 48 -38 47 0
-38 -48 0
47 -48 0
38 -47 48 0
c gate 49 38 -47 0
38 -49 0
-47 -49 0
-38 47 49 0
c gate 50 -48 -49 0
-48 -50 0
-49 -50 0
48 49 50 0
c gate 51 -37 -50 0
-37 -51 0
-50 -51 0
37 50 51 0
c gate 52 37 50 0
37 -52 0
50 -52 0
-37 -50 52 0
c gate 53 -51 -52 0
-51 -53 0
-52 -53 0
51 52 53 0
c gate 54 32 -53 0
32 -54 0
-53 -54 0
-32 53 54 0
c gate 55 -32 53 0
-32 -55 0
53 -55 0
32 -53 55 0
c gate 56 -28 -30 0
-28 -56 0
-30 -56 0
28 30 56 0
c gate 57 -3 -8 0
-3 -57 0
-8 -57 0
3 8 57 0
c gate 58 -39 -57 0
-39 -58 0
-57 -58 0
39 57 58 0
c gate 59 1 6 0
1 -59 0
6 -59 0
-1 -6 59 0
c gate 60 21 59 0
21 -60 0
59 -60 0
-21 -59 60 0
c gate 61 -58 60 0
-58 -61 0
60 -61 0
58 -60 61 0
c gate 62 -31 61 0
-31 -62 0
61 -62 0
31 -61 62 0
c gate 63 -56 62 0
-56 -63 0
62 -63 0
56 -62 63 0
c gate 64 -55 63 0
-55 -64 0
63 -64 0
55 -63 64 0
c gate 65 -54 64 0
-54 -65 0
64 -65 0
54 -64 65 0
c PO
65 0
